\Generated by Cardinal Operations

Maximize
   95.7 x_1 + 100 x_2 + 99.91 x_3 + 100 x_4 + 100 x_5 + 100 x_6 + 100 x_7 
   + 100 x_8 + 100 x_9 + 100 x_10 + 100 x_11 + 100 x_12 + 100 x_13 
   + 89.38 x_14 + 100 x_15 + 100 x_16 + 100 x_17 + 100 x_18 + 100 x_19 
   + 50.14 x_20 + 100 x_21 + 100 x_22 + 100 x_23 + 82.39 x_24 + 100 x_25 
   + 100 x_26 + 67.8 x_27 + 100 x_28 + 100 x_29 + 54.09 x_30 + 90.39 x_31 
   + 70.87 x_32 + 100 x_33 + 100 x_34 + 83.06999999999999 x_35 + 57.46 x_36 
   + 83.44 x_37 + 100 x_38 + 100 x_39 + 100 x_40 + 100 x_41 
   + 68.34999999999999 x_42 + 100 x_43 + 100 x_44 + 100 x_45 + 67.77 x_46 
   + 100 x_47 + 100 x_48 + 86.51000000000001 x_49 + 82.5 x_50 + 100 x_51 
   + 47.29 x_52 + 100 x_53 + 61.29 x_54 + 85.25 x_55 + 55.49 x_56 
   + 100 x_57 + 59.37 x_58 + 88.63 x_59 + 31.2 x_60 + 83.03 x_61 + 100 x_62 
   + 53.76 x_63 + 100 x_64 + 58.87 x_65 + 78.15000000000001 x_66 
   + 39.6 x_67 + 74.68000000000001 x_68 + 100 x_69 + 32.1 x_70 + 72.58 x_71 
   + 73.62 x_72 + 63.07 x_73 + 52.6 x_74 + 100 x_75 + 79.67 x_76 + 100 x_77 
   + 64.83 x_78 + 34.47 x_79 + 100 x_80 + 100 x_81 + 63.76 x_82 
   + 68.70999999999999 x_83 + 100 x_84 + 92.90000000000001 x_85 
   + 43.45 x_86 + 47.62 x_87 + 65.87 x_88 + 75.63 x_89 + 72.92 x_90 
   + 100 x_91 + 40.15 x_92 + 100 x_93 + 53.31 x_94 + 82.98999999999999 x_95 
   + 70.67 x_96 + 100 x_97 + 70.15000000000001 x_98 + 100 x_99 + 100 x_100 
   + 65.77 x_101 + 100 x_102 + 100 x_103 + 74.40000000000001 x_104 
   + 81.14 x_105 + 100 x_106 + 61.44 x_107 + 52.64 x_108 + 56.78 x_109 
Subject To
 inventory_constraint: x_1 <= 9440
 x_2 <= 9610
 x_3 <= 9280
 x_4 <= 9210
 x_5 <= 9520
 x_6 <= 9320
 x_7 <= 8380
 x_8 <= 9730
 x_9 <= 9720
 x_10 <= 9640
 x_11 <= 8980
 x_12 <= 8530
 x_13 <= 9210
 x_14 <= 8000
 x_15 <= 10240
 x_16 <= 9640
 x_17 <= 9990
 x_18 <= 9470
 x_19 <= 9970
 x_20 <= 8900
 x_21 <= 9140
 x_22 <= 9400
 x_23 <= 8020
 x_24 <= 9510
 x_25 <= 9170
 x_26 <= 9660
 x_27 <= 7430
 x_28 <= 9930
 x_29 <= 8280
 x_30 <= 9980
 x_31 <= 7460
 x_32 <= 8720
 x_33 <= 7890
 x_34 <= 8550
 x_35 <= 9910
 x_36 <= 9320
 x_37 <= 8720
 x_38 <= 8730
 x_39 <= 8220
 x_40 <= 17740
 x_41 <= 8600
 x_42 <= 8320
 x_43 <= 9090
 x_44 <= 8600
 x_45 <= 9480
 x_46 <= 8960
 x_47 <= 9970
 x_48 <= 9220
 x_49 <= 7500
 x_50 <= 9100
 x_51 <= 10310
 x_52 <= 9510
 x_53 <= 8940
 x_54 <= 7140
 x_55 <= 7240
 x_56 <= 9760
 x_57 <= 9310
 x_58 <= 8830
 x_59 <= 7840
 x_60 <= 8440
 x_61 <= 9290
 x_62 <= 9600
 x_63 <= 8510
 x_64 <= 9960
 x_65 <= 8450
 x_66 <= 8900
 x_67 <= 9830
 x_68 <= 8470
 x_69 <= 8100
 x_70 <= 9120
 x_71 <= 9550
 x_72 <= 7790
 x_73 <= 9200
 x_74 <= 8590
 x_75 <= 8240
 x_76 <= 8700
 x_77 <= 10520
 x_78 <= 10080
 x_79 <= 7450
 x_80 <= 8440
 x_81 <= 9000
 x_82 <= 8770
 x_83 <= 8330
 x_84 <= 8730
 x_85 <= 8680
 x_86 <= 8360
 x_87 <= 9550
 x_88 <= 9070
 x_89 <= 9570
 x_90 <= 8620
 x_91 <= 8170
 x_92 <= 9990
 x_93 <= 9790
 x_94 <= 9450
 x_95 <= 9120
 x_96 <= 9020
 x_97 <= 8370
 x_98 <= 8390
 x_99 <= 8680
 x_100 <= 9400
 x_101 <= 9900
 x_102 <= 9760
 x_103 <= 8610
 x_104 <= 9380
 x_105 <= 9170
 x_106 <= 8520
 x_107 <= 10290
 x_108 <= 9200
 x_109 <= 9270
 demand_constraint: x_1 <= 1280
 x_2 <= 1316
 x_3 <= 1242
 x_4 <= 1258
 x_5 <= 1292
 x_6 <= 1262
 x_7 <= 1132
 x_8 <= 1334
 x_9 <= 1323
 x_10 <= 1340
 x_11 <= 1232
 x_12 <= 1157
 x_13 <= 1237
 x_14 <= 1091
 x_15 <= 1386
 x_16 <= 1331
 x_17 <= 1364
 x_18 <= 1287
 x_19 <= 1378
 x_20 <= 1244
 x_21 <= 1278
 x_22 <= 1277
 x_23 <= 1063
 x_24 <= 1267
 x_25 <= 1233
 x_26 <= 1293
 x_27 <= 994
 x_28 <= 1363
 x_29 <= 1134
 x_30 <= 1362
 x_31 <= 1028
 x_32 <= 1200
 x_33 <= 1056
 x_34 <= 1139
 x_35 <= 1335
 x_36 <= 1267
 x_37 <= 1172
 x_38 <= 1175
 x_39 <= 1153
 x_40 <= 2457
 x_41 <= 1157
 x_42 <= 1139
 x_43 <= 1240
 x_44 <= 1206
 x_45 <= 1312
 x_46 <= 1224
 x_47 <= 1361
 x_48 <= 1241
 x_49 <= 1002
 x_50 <= 1246
 x_51 <= 1394
 x_52 <= 1327
 x_53 <= 1211
 x_54 <= 957
 x_55 <= 988
 x_56 <= 1347
 x_57 <= 1286
 x_58 <= 1193
 x_59 <= 1057
 x_60 <= 1165
 x_61 <= 1263
 x_62 <= 1288
 x_63 <= 1177
 x_64 <= 1358
 x_65 <= 1177
 x_66 <= 1191
 x_67 <= 1329
 x_68 <= 1135
 x_69 <= 1122
 x_70 <= 1223
 x_71 <= 1317
 x_72 <= 1086
 x_73 <= 1263
 x_74 <= 1183
 x_75 <= 1119
 x_76 <= 1182
 x_77 <= 1450
 x_78 <= 1357
 x_79 <= 1013
 x_80 <= 1145
 x_81 <= 1247
 x_82 <= 1205
 x_83 <= 1149
 x_84 <= 1185
 x_85 <= 1194
 x_86 <= 1160
 x_87 <= 1292
 x_88 <= 1253
 x_89 <= 1268
 x_90 <= 1193
 x_91 <= 1093
 x_92 <= 1351
 x_93 <= 1330
 x_94 <= 1278
 x_95 <= 1237
 x_96 <= 1254
 x_97 <= 1158
 x_98 <= 1144
 x_99 <= 1189
 x_100 <= 1274
 x_101 <= 1329
 x_102 <= 1342
 x_103 <= 1170
 x_104 <= 1247
 x_105 <= 1236
 x_106 <= 1175
 x_107 <= 1394
 x_108 <= 1252
 x_109 <= 1291
Generals
 x_1  x_2  x_3  x_4  x_5  x_6  x_7  x_8  x_9  x_10  x_11  x_12  x_13  x_14  
 x_15  x_16  x_17  x_18  x_19  x_20  x_21  x_22  x_23  x_24  x_25  x_26  
 x_27  x_28  x_29  x_30  x_31  x_32  x_33  x_34  x_35  x_36  x_37  x_38  
 x_39  x_40  x_41  x_42  x_43  x_44  x_45  x_46  x_47  x_48  x_49  x_50  
 x_51  x_52  x_53  x_54  x_55  x_56  x_57  x_58  x_59  x_60  x_61  x_62  
 x_63  x_64  x_65  x_66  x_67  x_68  x_69  x_70  x_71  x_72  x_73  x_74  
 x_75  x_76  x_77  x_78  x_79  x_80  x_81  x_82  x_83  x_84  x_85  x_86  
 x_87  x_88  x_89  x_90  x_91  x_92  x_93  x_94  x_95  x_96  x_97  x_98  
 x_99  x_100  x_101  x_102  x_103  x_104  x_105  x_106  x_107  x_108  
 x_109  
END

